proyfinal/src/viki/013/experimentInOfficeAgust.take6.output/91bf93da-15d0-41fa-a888-22d569661983.als.out
Reading from standard input... Use '--help' for help.
============================[ Problem Statistics ]=============================
|                                                                             |
|  Number of variables:         87638                                         |
|  Number of clauses:          161767                                         |
|  Parse time:                   0.04 s                                       |
|                                                                             |
============================[ Search Statistics ]==============================
| Conflicts |          ORIGINAL         |          LEARNT          | Progress |
|           |    Vars  Clauses Literals |    Limit  Clauses Lit/Cl |          |
===============================================================================
|       100 |   63777   110284   275329 |    40437      100     29 | 27.227 % |
|       250 |   63777   110284   275329 |    44481      250     26 | 27.227 % |
|       475 |   57661   110268   275285 |    48929      453     18 | 34.205 % |
|       812 |   57661    91160   228124 |    53822      775     32 | 34.205 % |
|      1318 |   57661    91160   228124 |    59204     1281     40 | 34.205 % |
|      2077 |   57638    91022   227808 |    65124     2032     64 | 34.232 % |
|      3216 |   57638    91022   227808 |    71637     3171     77 | 34.232 % |
|      4924 |   57616    90929   227585 |    78801     4878     80 | 34.257 % |
|      7486 |   56663    87771   219343 |    86681     7006     73 | 35.344 % |
|     11330 |   56433    86660   216675 |    95349    10416     68 | 35.607 % |
===============================================================================
restarts              : 63
conflicts             : 16720          (9007 /sec)
decisions             : 66167          (0.00 % random) (35643 /sec)
propagations          : 20401509       (10989930 /sec)
conflict literals     : 1125256        (44.28 % deleted)
Memory used           : 30.91 MB
CPU time              : 1.85638 s

INDETERMINATE
